StudentsNr = 10;
InstructorsNr = 45;
DaysNr = 1;
SlotsPerDay = 10;
AvailabilitySlotsLenght = 10;
RoomNr = 2;
ProgrammNr = 1;
DegreeNr = 2;
RolesNr = 2;
CoursesNr = 10;
InstructorsProgramm = [{1}, {1}, {1}, {1}, {1}, {1}, {1}, {1}, {1}, {1}, {1}, {1}, {1}, {1}, {1}, {1}, {1}, {1}, {1}, {1}, {1}, {1}, {1}, {1}, {1}, {1}, {1}, {1}, {1}, {1}, {1}, {1}, {1}, {1}, {1}, {1}, {1}, {1}, {1}, {1}, {1}, {1}, {1}, {1}, {1}];
InstructorRolesPerProgramm = [|{1, 2, 3, 4, 6, 12, 13, 19, 21, 27, 30, 31, 32, 36, 42, 43, 44, 45}, {1, 2, 6, 9, 10, 11, 12, 17, 18, 20, 23, 24, 25, 30, 33, 37, 38, 39}|];
InstructorsAvailability = [|1, |0, |1, |0, |0, |1, |0, |1, |0, |1, |0, |1, |0, |0, |1, |1, |0, |1, |0, |1, |0, |1, |0, |1, |1, |0, |1, |1, |0, |0, |0, |1, |0, |0, |0, |1, |0, |0, |0, |1, |1, |1, |1, |0, |1|];
StudentsProgramm = [1, 1, 1, 1, 1, 1, 1, 1, 1, 1];
StudentsDegree = [2, 2, 2, 2, 1, 2, 1, 2, 2, 1];
StudentsSupervisorId = [43, 39, 28, 40, 40, 42, 26, 40, 25, 8];
StudentsCourseIds = [{1, 2, 4, 5, 6, 7, 8, 10}, {1, 2, 3, 4, 5, 6, 8, 10}, {1, 2, 3, 4, 5, 8, 9, 10}, {1, 2, 3, 4, 5, 7, 8, 10}, {2, 3, 6, 7, 8, 10}, {1, 2, 4, 5, 6, 7, 9, 10}, {1, 3, 4, 6, 8, 10}, {1, 2, 4, 6, 7, 8, 9, 10}, {3, 4, 5, 6, 7, 8, 9, 10}, {1, 2, 3, 5, 8, 9}];
StudentsAvailability = [|0, |1, |1, |0, |1, |0, |0, |1, |1, |0|];
TheoryticalMinCard = [0, 0, 0, 0, 0, 0, 0, 0, 0, 0];
CoursesInstructorIds = [{12, 14, 15, 17, 18, 20, 22, 24, 25, 26, 30, 34, 35, 37, 39, 42, 45}, {3, 4, 10, 11, 13, 15, 18, 21, 25, 26, 27, 31, 32, 37, 38, 40, 43, 44}, {2, 4, 5, 10, 16, 17, 18, 21, 22, 23, 24, 26, 27, 29, 30, 31, 32, 34, 38, 39, 40, 41, 42, 43, 44, 45}, {3, 11, 22, 23, 27, 37, 42, 43}, {1, 2, 3, 4, 6, 7, 8, 11, 12, 13, 16, 17, 20, 21, 22, 24, 25, 26, 30, 32, 33, 35, 38, 40, 42, 44}, {1, 3, 4, 6, 7, 8, 9, 10, 11, 13, 15, 16, 18, 19, 20, 21, 23, 25, 30, 32, 34, 35, 43, 45}, {4, 5, 7, 11, 17, 20, 21, 30, 31, 32, 34, 35, 40, 42, 45}, {1, 10, 18, 27, 28}, {6, 24, 37}, {5, 6, 8, 9, 11, 15, 21, 22, 23, 25, 26, 27, 35, 37, 38, 43}];
RolesDemands = [1, 17];
RolesContinuity = [1];
ExamLen = [2, 2, 2, 2, 2, 2, 2, 2, 2, 2];
LunchTsMinLen = 0;
LunchStarts = [2..6];
SupervisorAvailable = 0;
OptimalLunchLenght = [2, 0];
OptimalStartTs = [0, 1];
OptimalFinishTs = [1, 10];
MinimizeRooms = 200;
RolesSoftContinuity = [|1, 2|3, 0|];
SameDegreeInRoom = 20;
Mergeability = 1;
